p tw 40 98
0 1
0 5
0 6
0 36
0 34
0 26
0 31
0 2
1 17
1 15
1 3
2 3
2 12
2 13
2 14
2 38
3 8
3 19
3 23
4 5
4 22
4 19
4 7
4 9
5 7
5 27
5 10
5 37
5 24
5 6
5 13
5 22
5 20
6 7
6 13
6 33
6 10
7 12
7 14
7 17
7 9
7 34
7 21
7 32
7 28
7 31
8 24
8 30
8 16
9 10
9 26
9 31
10 11
10 26
10 36
11 12
11 13
11 25
12 18
12 31
12 30
12 17
12 13
13 35
13 20
14 19
14 37
14 27
15 16
15 23
16 19
16 33
16 30
16 18
17 39
17 29
18 25
18 22
18 31
18 34
20 21
20 32
20 38
20 33
20 29
20 28
21 23
22 34
23 30
23 35
24 25
24 30
25 26
25 27
28 29
28 31
31 36
37 39
